p cnf 26 27
17 -14 -12 13 0
17 2 -18 -1 0
-16 1 19 -6 11 -2 0
5 -18 -12 -10 -7 0
-8 7 23 0
2 -16 -12 -5 -1 0
24 9 -14 -12 0
25 -6 -18 -2 0
-24 -21 7 -25 0
17 3 5 9 26 0
13 -26 -23 -4 -19 0
17 -13 -27 -4 -19 -18 0
9 -18 15 0
2 18 -12 -23 -21 14 0
27 -12 5 7 0
8 -7 15 0
1 -24 -8 -6 -21 0
-5 6 0
-3 0
-14 20 -4 13 15 0
12 3 7 9 -20 -19 0
5 -10 -23 -20 -19 0
-6 5 -1 -23 10 -20 -18 0
-16 2 -26 7 -10 -6 -20 0
16 3 5 21 -4 0
3 -25 -23 14 15 16 -13 -12 0
-16 17 11 -10 0
